c turning on binary mode checking
c parsing input formula with 202048 variables and 780980 clauses
c finished parsing, read 50489909 bytes from proof file
c detected empty clause; start verification via backward checking
c 94926 of 780980 clauses in core                            
c 217959 of 849212 lemmas in core using 4530485 resolution steps
c 0 RAT lemmas in core; 50902 redundant literals in core lemmas
s VERIFIED
c verification time: 17.680 seconds
